NAME: UNIstar
TYPE: TSP
CREATOR: Soohyun Hwang (UNIstar)
COMMENT: I wanna be a star!
DIMENSION: 9
EDGE_WEIGHT_TYPE: EUC_2D
NODE_COORD_SECTION
1 55 55 
2 80 52     
3 73 70 
4 56 80   
5 38 73    
6 30 52   
7 34 34  
8 55 27  
9 75 35      
10 68 54
11 63 63
12 54 68
13 44 63
14 41 52
15 44 42
16 55 38
17 64 44
EOF